-1 -631 0
-545 -631 0
-627 -631 0
-629 -631 0
1 81 0
d 551 1 81 0
-631 0
81 0
1 0
-71 0
-551 0
-151 0
-11 0
561 0
61 0
141 0
281 0
56 0
501 0
21 0
201 0
421 0
-491 0
-431 0
-131 0
-611 0
-511 0
-571 0
-211 0
-31 0
-351 0
-26 0
-36 0
-401 0
0
